
List of user-set options:

                                    Name   Value                used
                           compl_inf_tol = 1                     yes
                         constr_viol_tol = 1                     yes
                            dual_inf_tol = 1000                  yes
                           linear_solver = ma97                  yes
                              ma86_small = 1e-30                  no
                                  ma86_u = 0.0001                 no
                              ma97_order = best                  yes
                              ma97_small = 1e-30                 yes
                            ma97_switch1 = at_start              yes
                            ma97_switch2 = od_hd_reuse           yes
                                  ma97_u = 1e-06                 yes
                               ma97_umax = 0.5                   yes
                                max_iter = 1000                  yes
                    max_refinement_steps = 20                    yes
                    min_refinement_steps = 5                     yes
                                 mu_init = 1e-06                 yes
           mu_superlinear_decrease_power = 1.25                  yes
                   nlp_scaling_min_value = 1e-08                 yes
                        option_file_name = Preset_Case:_910_NCP.opt  yes
                             output_file = ./tmp/Preset_Case:_910_NCP.output  yes
                      print_user_options = yes                   yes
        required_infeasibility_reduction = 1                      no
                                     tol = 1e-08                 yes
                   warm_start_bound_frac = 1e-20                 yes
                   warm_start_bound_push = 1e-20                 yes
                   warm_start_init_point = yes                   yes
              warm_start_mult_bound_push = 1e-20                 yes
                warm_start_mult_init_max = 1e+40                 yes
             warm_start_slack_bound_frac = 1e-20                 yes
             warm_start_slack_bound_push = 1e-20                 yes

******************************************************************************
This program contains Ipopt, a library for large-scale nonlinear optimization.
 Ipopt is released as open source code under the Eclipse Public License (EPL).
         For more information visit http://projects.coin-or.org/Ipopt
******************************************************************************

This is Ipopt version 3.12.10, running with linear solver ma97.

Number of nonzeros in equality constraint Jacobian...:   117167
Number of nonzeros in inequality constraint Jacobian.:      213
Number of nonzeros in Lagrangian Hessian.............:    47513

Total number of variables............................:    29977
                     variables with only lower bounds:    11312
                variables with lower and upper bounds:    15135
                     variables with only upper bounds:        0
Total number of equality constraints.................:    29864
Total number of inequality constraints...............:       25
        inequality constraints with only lower bounds:        4
   inequality constraints with lower and upper bounds:        0
        inequality constraints with only upper bounds:       21

iter    objective    inf_pr   inf_du lg(mu)  ||d||  lg(rg) alpha_du alpha_pr  ls
   0 -5.0054671e-02 1.05e-01 2.00e+00  -6.0 0.00e+00    -  0.00e+00 0.00e+00   0
In iteration 0, 8 Slacks too small, adjusting variable bounds
   1 -5.0054671e-02 1.05e-01 3.04e+02  -6.0 1.08e+10    -  3.03e-14 1.42e-18h  1
   2 -5.0054218e-02 1.05e-01 3.05e+02  -6.0 1.55e+02    -  1.00e-02 3.30e-05f  1
   3 -5.0052413e-02 1.05e-01 3.05e+02  -6.0 1.35e+02    -  3.41e-03 1.48e-04h  1
   4 -5.4345947e-02 5.91e+00 1.74e+04  -6.0 8.00e+02    -  2.20e-02 2.12e-01f  1
   5 -5.4345542e-02 5.91e+00 1.74e+04  -6.0 2.97e+02    -  6.06e-02 8.66e-05h  1
   6 -5.4585195e-02 5.41e+00 1.61e+04  -6.0 2.80e+02    -  3.80e-03 8.20e-02f  1
   7 -5.4683842e-02 4.85e+00 1.47e+04  -6.0 2.89e+02    -  4.74e-02 1.00e-01h  1
   8 -5.4330080e-02 4.33e+00 1.34e+04  -6.0 2.77e+02    -  4.33e-02 1.02e-01h  1
   9 -5.2582242e-02 4.06e+00 1.26e+04  -6.0 2.51e+02    -  5.13e-02 6.28e-02h  1
iter    objective    inf_pr   inf_du lg(mu)  ||d||  lg(rg) alpha_du alpha_pr  ls
  10 -5.0459588e-02 3.93e+00 1.22e+04  -6.0 2.34e+02    -  2.22e-02 3.06e-02h  2
  11 -4.9946613e-02 3.91e+00 1.21e+04  -6.0 2.25e+02    -  7.26e-02 6.42e-03h  4
  12 -4.9885430e-02 3.90e+00 1.21e+04  -6.0 2.21e+02    -  9.33e-02 7.78e-04h  7
  13 -4.9884478e-02 3.90e+00 1.21e+04  -6.0 2.20e+02    -  1.05e-01 1.32e-05h 13
  14 -4.5953506e-02 3.64e+00 1.14e+04  -6.0 2.21e+02    -  6.63e-02 6.63e-02s 19
  15 -4.5947665e-02 3.64e+00 1.14e+04  -6.0 2.31e+02    -  5.93e-04 5.93e-04s 19
  16 -4.5450329e-02 3.45e+00 1.08e+04  -6.0 2.31e+02    -  5.06e-02 5.06e-02s 19
  17 -4.5130840e-02 3.29e+00 1.03e+04  -6.0 2.34e+02    -  4.67e-02 4.67e-02s 19
  18 -4.4656235e-02 3.05e+00 9.68e+03  -6.0 2.33e+02    -  6.93e-02 6.93e-02s 19
  19 -4.3242543e-02 2.32e+00 8.20e+03  -6.0 2.26e+02    -  2.07e-01 2.07e-01s 19
iter    objective    inf_pr   inf_du lg(mu)  ||d||  lg(rg) alpha_du alpha_pr  ls
  20 -4.2706141e-02 2.17e+00 7.93e+03  -6.0 2.01e+02    -  4.30e-02 4.30e-02s 19
  21 -4.1512838e-02 1.70e+00 6.23e+03  -6.0 1.93e+02    -  2.46e-01 2.46e-01s 19
  22 -4.1282117e-02 1.56e+00 5.76e+03  -6.0 1.67e+02    -  8.71e-02 8.71e-02s 19
  23 -4.0669403e-02 1.45e+00 4.09e+03  -6.0 2.13e+02    -  2.29e-01 2.29e-01s 19
  24 -4.1074243e-02 1.41e+00 3.83e+03  -6.0 1.25e+02    -  3.96e-02 3.96e-02s 19
  25r-4.1074243e-02 1.41e+00 1.00e+03  -0.2 0.00e+00  -2.0 0.00e+00 0.00e+00R  1
  26r-4.1011599e-02 1.62e+00 1.00e+03  -0.2 8.38e+05    -  1.61e-06 2.17e-06f  1
  27r-4.0271169e-02 1.62e+00 2.52e+03  -0.2 4.53e+03    -  9.34e-06 2.12e-05f  1
  28r-3.9702725e-02 1.62e+00 2.52e+03  -0.2 3.18e+03    -  5.97e-05 2.20e-05f  1
  29 -3.9573820e-02 1.61e+00 8.83e+04  -6.0 9.50e+01    -  5.01e-01 8.33e-03h  1
Error in an AMPL evaluation. Run with "halt_on_ampl_error yes" to see details.
Warning: Cutting back alpha due to evaluation error
iter    objective    inf_pr   inf_du lg(mu)  ||d||  lg(rg) alpha_du alpha_pr  ls
  30 -3.9089877e-02 1.42e+00 1.26e+06  -6.0 1.26e+02    -  8.33e-03 1.18e-01h  2
  31 -3.9043515e-02 1.41e+00 1.25e+06  -6.0 1.10e+02    -  6.96e-01 8.31e-03h  1
  32 -3.7490306e-02 9.15e-01 8.20e+05  -6.0 1.06e+02    -  1.63e-01 3.46e-01h  1
  33 -3.7058597e-02 8.08e-01 7.24e+05  -6.0 9.19e+01    -  7.81e-01 1.17e-01h  1
  34 -3.6090045e-02 6.74e-01 5.97e+05  -6.0 1.94e+02    -  8.41e-03 1.74e-01h  2
  35 -3.6124317e-02 6.70e-01 5.94e+05  -6.0 4.65e+02    -  7.48e-03 5.52e-03h  5
  36r-3.6124317e-02 6.70e-01 1.00e+03  -0.6 0.00e+00  -2.5 0.00e+00 2.75e-07R  6
  37r-3.6149877e-02 6.54e-01 1.00e+03  -0.6 4.67e+05    -  3.91e-06 5.11e-07f  1
  38r-3.5878584e-02 7.46e-01 1.28e+03  -0.6 5.17e+03    -  8.31e-05 2.56e-05f  1
  39 -3.5855981e-02 7.42e-01 1.46e+07  -6.0 3.89e+01    -  4.54e-01 6.20e-03h  1
iter    objective    inf_pr   inf_du lg(mu)  ||d||  lg(rg) alpha_du alpha_pr  ls
  40 -3.5767646e-02 7.29e-01 4.18e+07  -6.0 4.40e+01    -  6.20e-03 1.76e-02h  1
  41 -3.5715302e-02 7.15e-01 4.10e+07  -6.0 4.55e+01    -  5.66e-01 1.82e-02h  1
  42 -3.4277115e-02 3.77e-01 2.11e+07  -6.0 4.66e+01    -  4.45e-02 4.85e-01h  1
  43 -3.4184898e-02 3.62e-01 2.03e+07  -6.0 2.69e+01    -  4.87e-01 3.77e-02h  1
  44 -3.3920865e-02 3.23e-01 1.82e+07  -6.0 3.72e+01    -  1.43e-01 1.07e-01h  1
  45 -3.2634369e-02 1.91e-01 9.40e+06  -6.0 7.25e+01    -  8.44e-02 4.82e-01h  1
  46 -3.0684482e-02 1.95e-02 1.51e+05  -6.0 1.99e+01    -  3.98e-01 9.94e-01h  1
  47 -3.0844960e-02 1.48e-01 3.78e+07  -6.0 2.05e+02    -  8.45e-06 1.46e-01f  1
  48 -2.9048301e-02 1.29e-01 3.18e+07  -6.0 4.33e+01    -  1.78e-02 4.10e-01H  1
  49 -2.6943063e-02 1.64e-02 5.96e+06  -6.0 1.71e+01    -  2.99e-01 1.00e+00h  1
iter    objective    inf_pr   inf_du lg(mu)  ||d||  lg(rg) alpha_du alpha_pr  ls
  50 -2.7460412e-02 2.58e-04 1.71e+04  -6.0 3.20e+00    -  3.52e-02 1.00e+00h  1
  51 -2.8036409e-02 4.07e-04 1.01e+02  -6.0 4.02e+00    -  8.73e-01 1.00e+00h  1
  52 -2.9635411e-02 2.97e-03 8.32e+01  -6.0 5.90e+01    -  1.80e-01 1.65e-01h  1
  53 -3.1891528e-02 2.59e-02 2.96e+03  -6.0 2.67e+01    -  4.63e-01 1.00e+00f  1
  54 -3.1952157e-02 1.02e-04 1.24e+03  -6.0 1.16e-01  -3.0 5.12e-01 1.00e+00h  1
  55 -3.3087005e-02 1.93e-03 1.83e+03  -6.0 1.52e+02    -  1.74e-01 5.72e-02h  1
  56 -3.6952236e-02 2.78e-02 9.57e+02  -6.0 1.94e+02    -  1.15e-01 1.66e-01f  1
  57 -3.9471395e-02 4.54e-02 1.51e+04  -6.0 2.04e+02    -  5.11e-01 1.55e-01h  1
  58 -4.7305376e-02 3.22e-01 6.71e+03  -6.0 5.97e+02    -  1.15e-01 2.07e-01h  2
  59 -6.0647360e-02 2.06e+00 9.57e+03  -6.0 7.65e+02    -  1.56e-01 2.66e-01h  1
iter    objective    inf_pr   inf_du lg(mu)  ||d||  lg(rg) alpha_du alpha_pr  ls
  60 -6.4532504e-02 1.94e+00 7.45e+03  -6.0 1.69e+03    -  3.21e-02 2.82e-02h  1
  61 -6.5994168e-02 1.62e+00 5.48e+03  -6.0 1.64e+02    -  1.92e-01 1.66e-01h  1
  62 -6.8334291e-02 1.30e+00 1.95e+01  -6.0 2.19e+02    -  3.20e-01 1.98e-01h  1
  63 -7.0691931e-02 1.06e+00 2.21e+04  -6.0 2.56e+02    -  5.90e-01 1.84e-01h  1
  64 -7.7231396e-02 1.49e+00 1.05e+04  -6.0 3.53e+02    -  3.26e-01 3.67e-01h  1
  65 -8.0167969e-02 3.27e+00 1.11e+06  -6.0 3.59e+02    -  1.31e-03 3.70e-01h  1
  66 -8.0180564e-02 3.21e+00 1.58e+06  -6.0 1.14e+01  -3.4 3.74e-03 1.69e-02h  1
  67 -8.0182640e-02 3.01e+00 1.48e+06  -6.0 2.67e+00  -3.9 3.93e-01 6.32e-02h  1
  68 -8.0152972e-02 2.00e+00 9.87e+05  -6.0 3.29e+00  -4.4 8.67e-02 3.36e-01h  1
  69 -8.0164109e-02 1.82e+00 8.99e+05  -6.0 2.59e+00  -4.9 9.55e-01 8.95e-02h  1
iter    objective    inf_pr   inf_du lg(mu)  ||d||  lg(rg) alpha_du alpha_pr  ls
  70 -8.0295256e-02 5.21e-01 2.49e+05  -6.0 5.33e+00  -5.3 7.58e-01 7.23e-01h  1
  71 -8.0878396e-02 1.45e-01 1.70e+04  -6.0 6.67e+00  -5.8 1.00e+00 9.32e-01h  1
  72 -8.1898492e-02 3.53e-01 6.29e+03  -6.0 1.97e+01  -6.3 2.25e-03 6.30e-01h  1
  73 -8.5056000e-02 3.24e+00 4.02e+01  -6.0 5.50e+01  -6.8 5.20e-01 1.00e+00f  1
  74 -8.5961044e-02 2.75e+00 3.17e+01  -6.0 1.65e+02  -7.2 9.63e-01 1.65e-01h  1
  75 -8.6513825e-02 2.69e+00 3.71e+01  -6.0 1.59e+03  -7.7 1.40e-01 2.28e-02h  1
  76 -9.3035642e-02 2.44e+00 2.82e+01  -6.0 7.67e+02  -8.2 5.26e-01 2.45e-01h  1
  77 -9.7806442e-02 2.09e+00 4.62e+01  -6.0 1.73e+03  -8.7 5.50e-01 8.91e-02h  1
  78 -1.0180462e-01 2.41e+00 4.91e+01  -6.0 1.60e+03  -9.2 3.99e-01 1.88e-01h  1
  79 -1.0590198e-01 2.79e+00 5.81e+01  -6.0 7.47e+02  -8.7 7.77e-01 4.57e-01h  1
iter    objective    inf_pr   inf_du lg(mu)  ||d||  lg(rg) alpha_du alpha_pr  ls
  80 -1.0959526e-01 4.52e+00 7.95e+01  -6.0 2.17e+03  -9.2 6.25e-02 2.70e-01h  1
  81 -1.1166016e-01 4.32e+00 7.73e+01  -6.0 7.80e+02  -8.8 1.39e-01 3.83e-01h  1
  82 -1.1363665e-01 7.50e+00 6.81e+01  -6.0 3.04e+04  -9.3 5.26e-02 2.32e-02h  1
  83 -1.1371788e-01 7.40e+00 6.71e+01  -6.0 1.32e+03  -8.8 4.16e-01 1.45e-02h  1
  84 -1.1420631e-01 8.05e+00 6.28e+01  -6.0 8.69e+03  -9.3 1.32e-01 6.68e-02h  1
  85 -1.1461572e-01 7.91e+00 4.76e+01  -6.0 8.69e+02  -8.9 2.76e-01 2.45e-01h  1
  86 -1.1494748e-01 8.14e+00 3.87e+01  -6.0 4.45e+02  -8.5 7.46e-01 1.89e-01h  1
  87 -1.1528237e-01 1.05e+01 3.38e+01  -6.0 3.50e+02  -8.0 1.90e-01 2.29e-01h  1
  88 -1.1544762e-01 8.27e+00 3.27e+01  -6.0 5.90e+02  -8.5 1.21e-01 2.35e-01h  1
  89 -1.1567150e-01 6.42e+00 2.11e+01  -6.0 5.44e+02  -9.0 3.85e-01 2.20e-01h  1
iter    objective    inf_pr   inf_du lg(mu)  ||d||  lg(rg) alpha_du alpha_pr  ls
  90 -1.1581532e-01 5.66e-01 1.80e+01  -6.0 5.18e+01  -7.7 1.99e-01 1.00e+00h  1
  91 -1.1628456e-01 4.01e-01 1.44e+01  -6.0 1.09e+02  -8.1 6.71e-01 1.00e+00h  1
  92 -1.1756919e-01 1.58e+00 5.25e+01  -6.0 3.56e+02  -8.6 1.00e+00 1.00e+00h  1
  93 -1.1832996e-01 2.64e+00 1.22e+02  -6.0 2.72e+03  -9.1 1.90e-01 1.17e-01h  1
  94 -1.1907040e-01 2.35e+00 1.07e+02  -6.0 5.69e+03  -9.6 5.61e-03 1.04e-01h  1
  95 -1.1941731e-01 3.81e+00 6.65e+01  -6.0 2.31e+03  -9.1 3.82e-01 1.52e-01h  1
  96 -1.2252114e-01 2.67e+01 4.10e+03  -6.0 1.78e+03  -9.6 1.83e-01 6.52e-01h  1
  97 -1.2293294e-01 1.75e-01 1.18e+03  -6.0 1.72e+02  -8.3 1.39e-01 1.00e+00h  1
  98 -1.2319839e-01 2.88e-01 9.89e+02  -6.0 4.42e+02  -8.8 2.92e-01 2.26e-01h  1
  99 -1.2320540e-01 2.78e-01 1.06e+03  -6.0 1.68e+02  -8.3 1.99e-03 3.67e-02h  1
iter    objective    inf_pr   inf_du lg(mu)  ||d||  lg(rg) alpha_du alpha_pr  ls
 100 -1.2321471e-01 2.77e-01 1.02e+03  -6.0 1.67e+03  -8.8 6.83e-06 2.47e-03f  1
 101 -1.2324080e-01 2.82e-01 1.05e+03  -6.0 1.44e+03  -9.3 3.68e-04 1.66e-02f  1
 102 -1.2327750e-01 2.83e-01 1.04e+03  -6.0 3.17e+03  -9.8 9.73e-04 4.63e-03h  1
 103 -1.2327754e-01 2.83e-01 1.04e+03  -6.0 1.24e+05 -10.2 2.57e-07 2.61e-06f  2
